;--------------------------------------------------------------------------
; Benchmark created with Zazu
; Benchmark: 		euclidex_norm_inv5_2xlen3
; Created:   		2022-01-11 18:12
; Generator of the ideal: 
; 		 -q*r + p*s - p00*s00 + q00*r00
; 		 -b*r - a00*s00 + a*s + b00*r00
; 		 -a*q + a00*q00 - b00*p00 + b*p
; 		 -b00*p*r00 - a*p00*s00 + b00*p00*r + a*q00*r00 + a00*p*s00 - a00*q00*r
; 		 b*q00*r00 + b00*p00*s - b00*q*r00 - b*p00*s00 + a00*q*s00 - a00*q00*s
; Testing invariant: a^6*b^5*p^4*p00*q*r^5*s^3*s00 + a^4*b^5*b00*p*q^4*r^3*r00*s^6 - a^4*b^5*b00*p^2*q^7*r^5*r00*s^5 - a^6*b^4*b00*p^4*p00*q*r^5*s^4 + a^6*b^5*p^3*q00*r^3*r00*s^5 + a^6*a00*b^4*p^4*q*q00*r^5*s^4 + a^6*b^4*b00*p^3*p00*r^3*s^6 + a^4*b^5*b00*p^2*p00*q^6*r^5*s^6 + a^4*b^6*p^2*q^4*q00*r^5*r00*s^4 - a^4*b^5*b00*p*p00*q^3*r^3*s^7 - a^6*b^4*b00*p^4*p00*q^3*r^5*s^5 - a^5*a00*b^6*p^5*q*q00*r^2*s^3 + a^4*b^6*p^2*q^6*q00*r^5*r00*s^5 + a^5*a00*b^6*p^4*q00*s^5 + a^5*b^7*p^5*q*q00*r^2*r00*s^2 + a^5*b^6*b00*p^5*p00*q*r^2*s^3 - a^4*b^5*b00*p^2*q^5*r^5*r00*s^4 + a^6*b^4*b00*p^4*q^4*r^5*r00*s^4 - a^4*a00*b^5*p^2*q^6*q00*r^5*s^6 - a^5*b^7*p^5*p00*q*r^2*s^2*s00 - a^6*a00*b^4*p^3*q00*r^3*s^6 - a^5*b^7*p^5*p00*q^3*r^2*s^3*s00 - a^4*b^6*p^2*p00*q^6*r^5*s^5*s00 + a^5*a00*b^6*p^5*q^4*r^2*s^3*s00 + a^5*b^7*p^5*q^3*q00*r^2*r00*s^3 - a^5*b^6*b00*p^5*q^2*r^2*r00*s^2 + a^6*b^5*p^4*p00*q^3*r^5*s^4*s00 - a^6*b^5*p^4*q*q00*r^5*r00*s^3 + a^5*a00*b^6*p^5*q^2*r^2*s^2*s00 - a^6*a00*b^4*p^4*q^4*r^5*s^4*s00 - a^6*b^5*p^3*p00*r^3*s^5*s00 - a^6*b^5*p^4*q^3*q00*r^5*r00*s^4 - a^5*b^6*b00*p^4*p00*s^5 + a^4*a00*b^5*p^2*q^5*r^5*s^4*s00 + a^5*b^7*p^4*p00*s^4*s00 - a^5*a00*b^6*p^5*q^3*q00*r^2*s^4 + a^5*b^6*b00*p^4*q*r00*s^4 - a^6*a00*b^4*p^4*q^2*r^5*s^3*s00 - a^4*b^6*p^2*p00*q^4*r^5*s^4*s00 + a^4*b^5*b00*p^2*p00*q^4*r^5*s^5 - a^5*b^6*b00*p^5*q^4*r^2*r00*s^3 - a^5*a00*b^6*p^4*q*s^4*s00 - a^4*b^6*p*q^3*q00*r^3*r00*s^6 - a^5*b^7*p^4*q00*r00*s^4 + a^5*b^6*b00*p^5*p00*q^3*r^2*s^4 + a^6*a00*b^4*p^4*q^3*q00*r^5*s^5 + a^4*a00*b^5*p^2*q^7*r^5*s^5*s00 + a^4*b^6*p*p00*q^3*r^3*s^6*s00 + a^6*a00*b^4*p^3*q*r^3*s^5*s00 - a^6*b^4*b00*p^3*q*r^3*r00*s^5 + a^4*a00*b^5*p*q^3*q00*r^3*s^7 - a^4*a00*b^5*p^2*q^4*q00*r^5*s^5 + a^6*b^4*b00*p^4*q^2*r^5*r00*s^3 - a^4*a00*b^5*p*q^4*r^3*s^6*s00
;--------------------------------------------------------------------------

(set-logic NIA)
(set-option :produce-proofs true)

(declare-const p00 Int)
(declare-const a00 Int)
(declare-const q00 Int)
(declare-const b00 Int)
(declare-const r00 Int)
(declare-const s00 Int)

(assert 
	(exists
		((p Int) (a Int) (q Int) (b Int) (r Int) (s Int))
		(and
			(= (+ (- (+ (* (- 1) q r) (* p s)) (* p00 s00)) (* q00 r00)) 0)
			(= (+ (- (* (- 1) b r) (* a00 s00)) (* a s) (* b00 r00)) 0)
			(= (+ (- (+ (* (- 1) a q) (* a00 q00)) (* b00 p00)) (* b p)) 0)
			(= (- (+ (- (* (- 1) b00 p r00) (* a p00 s00)) (* b00 p00 r) (* a q00 r00) (* a00 p s00)) (* a00 q00 r)) 0)
			(= (- (+ (- (+ (* b q00 r00) (* b00 p00 s)) (* b00 q r00) (* b p00 s00)) (* a00 q s00)) (* a00 q00 s)) 0)

			(or
				(not (= (- (+ (- (+ (- (+ (- (+ (- (+ (- (+ (- (+ (- (+ (- (+ (- (+ (- (+ (- (+ (- (+ (* (- a b) (- a b) (- a b) (- a b) (- a b) (- a b) b b b b b (- p q) (- p q) (- p q) (- p q) p00 q (- r s) (- r s) (- r s) (- r s) (- r s) s s s s00) (* (- a b) (- a b) (- a b) (- a b) b b b b b b00 (- p q) q q q q (- r s) (- r s) (- r s) r00 s s s s s s)) (* (- a b) (- a b) (- a b) (- a b) b b b b b b00 (- p q) (- p q) q q q q q q q (- r s) (- r s) (- r s) (- r s) (- r s) r00 s s s s s) (* (- a b) (- a b) (- a b) (- a b) (- a b) (- a b) b b b b b00 (- p q) (- p q) (- p q) (- p q) p00 q (- r s) (- r s) (- r s) (- r s) (- r s) s s s s)) (* (- a b) (- a b) (- a b) (- a b) (- a b) (- a b) b b b b b (- p q) (- p q) (- p q) q00 (- r s) (- r s) (- r s) r00 s s s s s) (* (- a b) (- a b) (- a b) (- a b) (- a b) (- a b) a00 b b b b (- p q) (- p q) (- p q) (- p q) q q00 (- r s) (- r s) (- r s) (- r s) (- r s) s s s s) (* (- a b) (- a b) (- a b) (- a b) (- a b) (- a b) b b b b b00 (- p q) (- p q) (- p q) p00 (- r s) (- r s) (- r s) s s s s s s) (* (- a b) (- a b) (- a b) (- a b) b b b b b b00 (- p q) (- p q) p00 q q q q q q (- r s) (- r s) (- r s) (- r s) (- r s) s s s s s s) (* (- a b) (- a b) (- a b) (- a b) b b b b b b (- p q) (- p q) q q q q q00 (- r s) (- r s) (- r s) (- r s) (- r s) r00 s s s s)) (* (- a b) (- a b) (- a b) (- a b) b b b b b b00 (- p q) p00 q q q (- r s) (- r s) (- r s) s s s s s s s) (* (- a b) (- a b) (- a b) (- a b) (- a b) (- a b) b b b b b00 (- p q) (- p q) (- p q) (- p q) p00 q q q (- r s) (- r s) (- r s) (- r s) (- r s) s s s s s) (* (- a b) (- a b) (- a b) (- a b) (- a b) a00 b b b b b b (- p q) (- p q) (- p q) (- p q) (- p q) q q00 (- r s) (- r s) s s s)) (* (- a b) (- a b) (- a b) (- a b) b b b b b b (- p q) (- p q) q q q q q q q00 (- r s) (- r s) (- r s) (- r s) (- r s) r00 s s s s s) (* (- a b) (- a b) (- a b) (- a b) (- a b) a00 b b b b b b (- p q) (- p q) (- p q) (- p q) q00 s s s s s) (* (- a b) (- a b) (- a b) (- a b) (- a b) b b b b b b b (- p q) (- p q) (- p q) (- p q) (- p q) q q00 (- r s) (- r s) r00 s s) (* (- a b) (- a b) (- a b) (- a b) (- a b) b b b b b b b00 (- p q) (- p q) (- p q) (- p q) (- p q) p00 q (- r s) (- r s) s s s)) (* (- a b) (- a b) (- a b) (- a b) b b b b b b00 (- p q) (- p q) q q q q q (- r s) (- r s) (- r s) (- r s) (- r s) r00 s s s s)) (* (- a b) (- a b) (- a b) (- a b) (- a b) (- a b) b b b b b00 (- p q) (- p q) (- p q) (- p q) q q q q (- r s) (- r s) (- r s) (- r s) (- r s) r00 s s s s)) (* (- a b) (- a b) (- a b) (- a b) a00 b b b b b (- p q) (- p q) q q q q q q q00 (- r s) (- r s) (- r s) (- r s) (- r s) s s s s s s) (* (- a b) (- a b) (- a b) (- a b) (- a b) b b b b b b b (- p q) (- p q) (- p q) (- p q) (- p q) p00 q (- r s) (- r s) s s s00) (* (- a b) (- a b) (- a b) (- a b) (- a b) (- a b) a00 b b b b (- p q) (- p q) (- p q) q00 (- r s) (- r s) (- r s) s s s s s s) (* (- a b) (- a b) (- a b) (- a b) (- a b) b b b b b b b (- p q) (- p q) (- p q) (- p q) (- p q) p00 q q q (- r s) (- r s) s s s s00) (* (- a b) (- a b) (- a b) (- a b) b b b b b b (- p q) (- p q) p00 q q q q q q (- r s) (- r s) (- r s) (- r s) (- r s) s s s s s s00)) (* (- a b) (- a b) (- a b) (- a b) (- a b) a00 b b b b b b (- p q) (- p q) (- p q) (- p q) (- p q) q q q q (- r s) (- r s) s s s s00) (* (- a b) (- a b) (- a b) (- a b) (- a b) b b b b b b b (- p q) (- p q) (- p q) (- p q) (- p q) q q q q00 (- r s) (- r s) r00 s s s)) (* (- a b) (- a b) (- a b) (- a b) (- a b) b b b b b b b00 (- p q) (- p q) (- p q) (- p q) (- p q) q q (- r s) (- r s) r00 s s)) (* (- a b) (- a b) (- a b) (- a b) (- a b) (- a b) b b b b b (- p q) (- p q) (- p q) (- p q) p00 q q q (- r s) (- r s) (- r s) (- r s) (- r s) s s s s s00)) (* (- a b) (- a b) (- a b) (- a b) (- a b) (- a b) b b b b b (- p q) (- p q) (- p q) (- p q) q q00 (- r s) (- r s) (- r s) (- r s) (- r s) r00 s s s)) (* (- a b) (- a b) (- a b) (- a b) (- a b) a00 b b b b b b (- p q) (- p q) (- p q) (- p q) (- p q) q q (- r s) (- r s) s s s00)) (* (- a b) (- a b) (- a b) (- a b) (- a b) (- a b) a00 b b b b (- p q) (- p q) (- p q) (- p q) q q q q (- r s) (- r s) (- r s) (- r s) (- r s) s s s s s00) (* (- a b) (- a b) (- a b) (- a b) (- a b) (- a b) b b b b b (- p q) (- p q) (- p q) p00 (- r s) (- r s) (- r s) s s s s s s00) (* (- a b) (- a b) (- a b) (- a b) (- a b) (- a b) b b b b b (- p q) (- p q) (- p q) (- p q) q q q q00 (- r s) (- r s) (- r s) (- r s) (- r s) r00 s s s s) (* (- a b) (- a b) (- a b) (- a b) (- a b) b b b b b b b00 (- p q) (- p q) (- p q) (- p q) p00 s s s s s)) (* (- a b) (- a b) (- a b) (- a b) a00 b b b b b (- p q) (- p q) q q q q q (- r s) (- r s) (- r s) (- r s) (- r s) s s s s s00) (* (- a b) (- a b) (- a b) (- a b) (- a b) b b b b b b b (- p q) (- p q) (- p q) (- p q) p00 s s s s s00)) (* (- a b) (- a b) (- a b) (- a b) (- a b) a00 b b b b b b (- p q) (- p q) (- p q) (- p q) (- p q) q q q q00 (- r s) (- r s) s s s s)) (* (- a b) (- a b) (- a b) (- a b) (- a b) b b b b b b b00 (- p q) (- p q) (- p q) (- p q) q r00 s s s s)) (* (- a b) (- a b) (- a b) (- a b) (- a b) (- a b) a00 b b b b (- p q) (- p q) (- p q) (- p q) q q (- r s) (- r s) (- r s) (- r s) (- r s) s s s s00) (* (- a b) (- a b) (- a b) (- a b) b b b b b b (- p q) (- p q) p00 q q q q (- r s) (- r s) (- r s) (- r s) (- r s) s s s s s00)) (* (- a b) (- a b) (- a b) (- a b) b b b b b b00 (- p q) (- p q) p00 q q q q (- r s) (- r s) (- r s) (- r s) (- r s) s s s s s)) (* (- a b) (- a b) (- a b) (- a b) (- a b) b b b b b b b00 (- p q) (- p q) (- p q) (- p q) (- p q) q q q q (- r s) (- r s) r00 s s s) (* (- a b) (- a b) (- a b) (- a b) (- a b) a00 b b b b b b (- p q) (- p q) (- p q) (- p q) q s s s s s00) (* (- a b) (- a b) (- a b) (- a b) b b b b b b (- p q) q q q q00 (- r s) (- r s) (- r s) r00 s s s s s s) (* (- a b) (- a b) (- a b) (- a b) (- a b) b b b b b b b (- p q) (- p q) (- p q) (- p q) q00 r00 s s s s)) (* (- a b) (- a b) (- a b) (- a b) (- a b) b b b b b b b00 (- p q) (- p q) (- p q) (- p q) (- p q) p00 q q q (- r s) (- r s) s s s s) (* (- a b) (- a b) (- a b) (- a b) (- a b) (- a b) a00 b b b b (- p q) (- p q) (- p q) (- p q) q q q q00 (- r s) (- r s) (- r s) (- r s) (- r s) s s s s s) (* (- a b) (- a b) (- a b) (- a b) a00 b b b b b (- p q) (- p q) q q q q q q q (- r s) (- r s) (- r s) (- r s) (- r s) s s s s s s00) (* (- a b) (- a b) (- a b) (- a b) b b b b b b (- p q) p00 q q q (- r s) (- r s) (- r s) s s s s s s s00) (* (- a b) (- a b) (- a b) (- a b) (- a b) (- a b) a00 b b b b (- p q) (- p q) (- p q) q (- r s) (- r s) (- r s) s s s s s s00)) (* (- a b) (- a b) (- a b) (- a b) (- a b) (- a b) b b b b b00 (- p q) (- p q) (- p q) q (- r s) (- r s) (- r s) r00 s s s s s)) (* (- a b) (- a b) (- a b) (- a b) a00 b b b b b (- p q) q q q q00 (- r s) (- r s) (- r s) s s s s s s s)) (* (- a b) (- a b) (- a b) (- a b) a00 b b b b b (- p q) (- p q) q q q q q00 (- r s) (- r s) (- r s) (- r s) (- r s) s s s s s)) (* (- a b) (- a b) (- a b) (- a b) (- a b) (- a b) b b b b b00 (- p q) (- p q) (- p q) (- p q) q q (- r s) (- r s) (- r s) (- r s) (- r s) r00 s s s)) (* (- a b) (- a b) (- a b) (- a b) a00 b b b b b (- p q) q q q q (- r s) (- r s) (- r s) s s s s s s s00)) 0))
				(not (= (- (+ (- (+ (- (+ (- (+ (- (+ (- (+ (- (+ (- (+ (- (+ (- (+ (- (+ (- (+ (- (+ (* a a a a a a (- b a) (- b a) (- b a) (- b a) (- b a) p p p p p00 (- q p) r r r r r (- s r) (- s r) (- s r) s00) (* a a a a (- b a) (- b a) (- b a) (- b a) (- b a) b00 p (- q p) (- q p) (- q p) (- q p) r r r r00 (- s r) (- s r) (- s r) (- s r) (- s r) (- s r))) (* a a a a (- b a) (- b a) (- b a) (- b a) (- b a) b00 p p (- q p) (- q p) (- q p) (- q p) (- q p) (- q p) (- q p) r r r r r r00 (- s r) (- s r) (- s r) (- s r) (- s r)) (* a a a a a a (- b a) (- b a) (- b a) (- b a) b00 p p p p p00 (- q p) r r r r r (- s r) (- s r) (- s r) (- s r))) (* a a a a a a (- b a) (- b a) (- b a) (- b a) (- b a) p p p q00 r r r r00 (- s r) (- s r) (- s r) (- s r) (- s r)) (* a a a a a a a00 (- b a) (- b a) (- b a) (- b a) p p p p (- q p) q00 r r r r r (- s r) (- s r) (- s r) (- s r)) (* a a a a a a (- b a) (- b a) (- b a) (- b a) b00 p p p p00 r r r (- s r) (- s r) (- s r) (- s r) (- s r) (- s r)) (* a a a a (- b a) (- b a) (- b a) (- b a) (- b a) b00 p p p00 (- q p) (- q p) (- q p) (- q p) (- q p) (- q p) r r r r r (- s r) (- s r) (- s r) (- s r) (- s r) (- s r)) (* a a a a (- b a) (- b a) (- b a) (- b a) (- b a) (- b a) p p (- q p) (- q p) (- q p) (- q p) q00 r r r r r r00 (- s r) (- s r) (- s r) (- s r))) (* a a a a (- b a) (- b a) (- b a) (- b a) (- b a) b00 p p00 (- q p) (- q p) (- q p) r r r (- s r) (- s r) (- s r) (- s r) (- s r) (- s r) (- s r)) (* a a a a a a (- b a) (- b a) (- b a) (- b a) b00 p p p p p00 (- q p) (- q p) (- q p) r r r r r (- s r) (- s r) (- s r) (- s r) (- s r)) (* a a a a a a00 (- b a) (- b a) (- b a) (- b a) (- b a) (- b a) p p p p p (- q p) q00 r r (- s r) (- s r) (- s r))) (* a a a a (- b a) (- b a) (- b a) (- b a) (- b a) (- b a) p p (- q p) (- q p) (- q p) (- q p) (- q p) (- q p) q00 r r r r r r00 (- s r) (- s r) (- s r) (- s r) (- s r)) (* a a a a a a00 (- b a) (- b a) (- b a) (- b a) (- b a) (- b a) p p p p q00 (- s r) (- s r) (- s r) (- s r) (- s r)) (* a a a a a (- b a) (- b a) (- b a) (- b a) (- b a) (- b a) (- b a) p p p p p (- q p) q00 r r r00 (- s r) (- s r)) (* a a a a a (- b a) (- b a) (- b a) (- b a) (- b a) (- b a) b00 p p p p p p00 (- q p) r r (- s r) (- s r) (- s r))) (* a a a a (- b a) (- b a) (- b a) (- b a) (- b a) b00 p p (- q p) (- q p) (- q p) (- q p) (- q p) r r r r r r00 (- s r) (- s r) (- s r) (- s r))) (* a a a a a a (- b a) (- b a) (- b a) (- b a) b00 p p p p (- q p) (- q p) (- q p) (- q p) r r r r r r00 (- s r) (- s r) (- s r) (- s r))) (* a a a a a00 (- b a) (- b a) (- b a) (- b a) (- b a) p p (- q p) (- q p) (- q p) (- q p) (- q p) (- q p) q00 r r r r r (- s r) (- s r) (- s r) (- s r) (- s r) (- s r)) (* a a a a a (- b a) (- b a) (- b a) (- b a) (- b a) (- b a) (- b a) p p p p p p00 (- q p) r r (- s r) (- s r) s00) (* a a a a a a a00 (- b a) (- b a) (- b a) (- b a) p p p q00 r r r (- s r) (- s r) (- s r) (- s r) (- s r) (- s r)) (* a a a a a (- b a) (- b a) (- b a) (- b a) (- b a) (- b a) (- b a) p p p p p p00 (- q p) (- q p) (- q p) r r (- s r) (- s r) (- s r) s00) (* a a a a (- b a) (- b a) (- b a) (- b a) (- b a) (- b a) p p p00 (- q p) (- q p) (- q p) (- q p) (- q p) (- q p) r r r r r (- s r) (- s r) (- s r) (- s r) (- s r) s00)) (* a a a a a a00 (- b a) (- b a) (- b a) (- b a) (- b a) (- b a) p p p p p (- q p) (- q p) (- q p) (- q p) r r (- s r) (- s r) (- s r) s00) (* a a a a a (- b a) (- b a) (- b a) (- b a) (- b a) (- b a) (- b a) p p p p p (- q p) (- q p) (- q p) q00 r r r00 (- s r) (- s r) (- s r))) (* a a a a a (- b a) (- b a) (- b a) (- b a) (- b a) (- b a) b00 p p p p p (- q p) (- q p) r r r00 (- s r) (- s r))) (* a a a a a a (- b a) (- b a) (- b a) (- b a) (- b a) p p p p p00 (- q p) (- q p) (- q p) r r r r r (- s r) (- s r) (- s r) (- s r) s00)) (* a a a a a a (- b a) (- b a) (- b a) (- b a) (- b a) p p p p (- q p) q00 r r r r r r00 (- s r) (- s r) (- s r))) (* a a a a a a00 (- b a) (- b a) (- b a) (- b a) (- b a) (- b a) p p p p p (- q p) (- q p) r r (- s r) (- s r) s00)) (* a a a a a a a00 (- b a) (- b a) (- b a) (- b a) p p p p (- q p) (- q p) (- q p) (- q p) r r r r r (- s r) (- s r) (- s r) (- s r) s00) (* a a a a a a (- b a) (- b a) (- b a) (- b a) (- b a) p p p p00 r r r (- s r) (- s r) (- s r) (- s r) (- s r) s00) (* a a a a a a (- b a) (- b a) (- b a) (- b a) (- b a) p p p p (- q p) (- q p) (- q p) q00 r r r r r r00 (- s r) (- s r) (- s r) (- s r)) (* a a a a a (- b a) (- b a) (- b a) (- b a) (- b a) (- b a) b00 p p p p p00 (- s r) (- s r) (- s r) (- s r) (- s r))) (* a a a a a00 (- b a) (- b a) (- b a) (- b a) (- b a) p p (- q p) (- q p) (- q p) (- q p) (- q p) r r r r r (- s r) (- s r) (- s r) (- s r) s00) (* a a a a a (- b a) (- b a) (- b a) (- b a) (- b a) (- b a) (- b a) p p p p p00 (- s r) (- s r) (- s r) (- s r) s00)) (* a a a a a a00 (- b a) (- b a) (- b a) (- b a) (- b a) (- b a) p p p p p (- q p) (- q p) (- q p) q00 r r (- s r) (- s r) (- s r) (- s r))) (* a a a a a (- b a) (- b a) (- b a) (- b a) (- b a) (- b a) b00 p p p p (- q p) r00 (- s r) (- s r) (- s r) (- s r))) (* a a a a a a a00 (- b a) (- b a) (- b a) (- b a) p p p p (- q p) (- q p) r r r r r (- s r) (- s r) (- s r) s00) (* a a a a (- b a) (- b a) (- b a) (- b a) (- b a) (- b a) p p p00 (- q p) (- q p) (- q p) (- q p) r r r r r (- s r) (- s r) (- s r) (- s r) s00)) (* a a a a (- b a) (- b a) (- b a) (- b a) (- b a) b00 p p p00 (- q p) (- q p) (- q p) (- q p) r r r r r (- s r) (- s r) (- s r) (- s r) (- s r))) (* a a a a a (- b a) (- b a) (- b a) (- b a) (- b a) (- b a) b00 p p p p p (- q p) (- q p) (- q p) (- q p) r r r00 (- s r) (- s r) (- s r)) (* a a a a a a00 (- b a) (- b a) (- b a) (- b a) (- b a) (- b a) p p p p (- q p) (- s r) (- s r) (- s r) (- s r) s00) (* a a a a (- b a) (- b a) (- b a) (- b a) (- b a) (- b a) p (- q p) (- q p) (- q p) q00 r r r r00 (- s r) (- s r) (- s r) (- s r) (- s r) (- s r)) (* a a a a a (- b a) (- b a) (- b a) (- b a) (- b a) (- b a) (- b a) p p p p q00 r00 (- s r) (- s r) (- s r) (- s r))) (* a a a a a (- b a) (- b a) (- b a) (- b a) (- b a) (- b a) b00 p p p p p p00 (- q p) (- q p) (- q p) r r (- s r) (- s r) (- s r) (- s r)) (* a a a a a a a00 (- b a) (- b a) (- b a) (- b a) p p p p (- q p) (- q p) (- q p) q00 r r r r r (- s r) (- s r) (- s r) (- s r) (- s r)) (* a a a a a00 (- b a) (- b a) (- b a) (- b a) (- b a) p p (- q p) (- q p) (- q p) (- q p) (- q p) (- q p) (- q p) r r r r r (- s r) (- s r) (- s r) (- s r) (- s r) s00) (* a a a a (- b a) (- b a) (- b a) (- b a) (- b a) (- b a) p p00 (- q p) (- q p) (- q p) r r r (- s r) (- s r) (- s r) (- s r) (- s r) (- s r) s00) (* a a a a a a a00 (- b a) (- b a) (- b a) (- b a) p p p (- q p) r r r (- s r) (- s r) (- s r) (- s r) (- s r) s00)) (* a a a a a a (- b a) (- b a) (- b a) (- b a) b00 p p p (- q p) r r r r00 (- s r) (- s r) (- s r) (- s r) (- s r))) (* a a a a a00 (- b a) (- b a) (- b a) (- b a) (- b a) p (- q p) (- q p) (- q p) q00 r r r (- s r) (- s r) (- s r) (- s r) (- s r) (- s r) (- s r))) (* a a a a a00 (- b a) (- b a) (- b a) (- b a) (- b a) p p (- q p) (- q p) (- q p) (- q p) q00 r r r r r (- s r) (- s r) (- s r) (- s r) (- s r))) (* a a a a a a (- b a) (- b a) (- b a) (- b a) b00 p p p p (- q p) (- q p) r r r r r r00 (- s r) (- s r) (- s r))) (* a a a a a00 (- b a) (- b a) (- b a) (- b a) (- b a) p (- q p) (- q p) (- q p) (- q p) r r r (- s r) (- s r) (- s r) (- s r) (- s r) (- s r) s00)) 0))
			)
		)
	)
)
(check-sat)
(get-proof)
(exit)
